     Program PWSCF v.7.2 starts on  9May2024 at 17: 9:53

     Reading input from lcso_scf.in

     Current dimensions of program PWSCF are:
     Max number of different atomic species (ntypx) = 10
     Max number of k-points (npk) =  40000
     Max angular momentum in pseudopotentials (lmaxx) =  4
     Message from routine setup:
     using ibrav=0 with symmetry is DISCOURAGED, use correct ibrav instead

     R & G space division:  proc/nbgrp/npool/nimage =      36
     Subspace diagonalization in iterative solution of the eigenvalue problem:
     one sub-group per band group will be used

     Using Slab Decomposition

     bravais-lattice index     =            0
     lattice parameter (alat)  =      15.2665  a.u.
     unit-cell volume          =    3526.2206 (a.u.)^3
     number of atoms/cell      =           42
     number of atomic types    =            4
     number of electrons       =       386.00
     number of Kohn-Sham states=          500
     kinetic-energy cutoff     =     100.0000  Ry
     charge density cutoff     =     400.0000  Ry
     scf convergence threshold =      1.0E-06
     mixing beta               =       0.2000
     number of iterations used =            8  plain     mixing
     Exchange-correlation= PBESOL
                           (   1   4  10   8   0   0   0)

     celldm(1)=  15.266530  celldm(2)=   0.000000  celldm(3)=   0.000000
     celldm(4)=   0.000000  celldm(5)=   0.000000  celldm(6)=   0.000000

     crystal axes: (cart. coord. in units of alat)
               a(1) = (   1.000000   0.000000   0.000000 )
               a(2) = (   0.000000   1.143204   0.000000 )
               a(3) = (  -0.418829   0.000000   0.866892 )

     reciprocal axes: (cart. coord. in units 2 pi/alat)
               b(1) = (  1.000000  0.000000  0.483139 )
               b(2) = (  0.000000  0.874735  0.000000 )
               b(3) = (  0.000000  0.000000  1.153547 )

     PseudoPot. # 1 for Co read from file:
     /projects/p31387/PP/PBEsol_NC_SR/Co.upf
     MD5 check sum: da2f8eda8ae963674925720b0359a264
     Pseudo is Norm-conserving + core correction, Zval = 17.0
     Generated using ONCVPSP code by D. R. Hamann
     Using radial grid of 1388 points,  6 beta functions with:
                l(1) =   0
                l(2) =   0
                l(3) =   1
                l(4) =   1
                l(5) =   2
                l(6) =   2

     PseudoPot. # 2 for Li read from file:
     /projects/p31387/PP/PBEsol_NC_SR/Li.upf
     MD5 check sum: dc9f6e608df41cc7e5665a263ba47fe0
     Pseudo is Norm-conserving, Zval =  3.0
     Generated using ONCVPSP code by D. R. Hamann
     Using radial grid of 1944 points,  4 beta functions with:
                l(1) =   0
                l(2) =   0
                l(3) =   1
                l(4) =   1

     PseudoPot. # 3 for O  read from file:
     /projects/p31387/PP/PBEsol_NC_SR/O.upf
     MD5 check sum: f226cbcd508cec715ff87a8f75a1dfba
     Pseudo is Norm-conserving + core correction, Zval =  6.0
     Generated using ONCVPSP code by D. R. Hamann
     Using radial grid of  936 points,  5 beta functions with:
                l(1) =   0
                l(2) =   0
                l(3) =   1
                l(4) =   1
                l(5) =   2

     PseudoPot. # 4 for Se read from file:
     /projects/p31387/PP/PBEsol_NC_SR/Se.upf
     MD5 check sum: c42e2feaec75ccac7da27b7ff1240b9c
     Pseudo is Norm-conserving + core correction, Zval = 16.0
     Generated using ONCVPSP code by D. R. Hamann
     Using radial grid of 1198 points,  6 beta functions with:
                l(1) =   0
                l(2) =   0
                l(3) =   1
                l(4) =   1
                l(5) =   2
                l(6) =   2

     atomic species   valence    mass     pseudopotential
        Co            17.00    58.93319     Co( 1.00)
        Li             3.00     6.94100     Li( 1.00)
        O              6.00    15.99940     O ( 1.00)
        Se            16.00    78.96000     Se( 1.00)

      2 Sym. Ops., with inversion, found

                                    s                        frac. trans.

      isym =  1     identity

 cryst.   s( 1) = (     1          0          0      )
                  (     0          1          0      )
                  (     0          0          1      )

 cart.    s( 1) = (  1.0000000  0.0000000  0.0000000 )
                  (  0.0000000  1.0000000  0.0000000 )
                  (  0.0000000  0.0000000  1.0000000 )

      isym =  2     inversion

 cryst.   s( 2) = (    -1          0          0      )
                  (     0         -1          0      )
                  (     0          0         -1      )

 cart.    s( 2) = ( -1.0000000  0.0000000  0.0000000 )
                  (  0.0000000 -1.0000000  0.0000000 )
                  (  0.0000000  0.0000000 -1.0000000 )

   Cartesian axes

     site n.     atom                  positions (alat units)
         1           Se  tau(   1) = (  -0.2147682   0.9460011   0.6386737  )
         2           Se  tau(   2) = (   0.5865245   0.3743992   0.6616637  )
         3           Se  tau(   3) = (   0.7959390   0.1972026   0.2282179  )
         4           Se  tau(   4) = (  -0.0053536   0.7688045   0.2052279  )
         5           Se  tau(   5) = (   0.0659170   0.2098922   0.5387125  )
         6           Se  tau(   6) = (   0.3058393   0.7814941   0.7616250  )
         7           Se  tau(   7) = (   0.5152538   0.9333115   0.3281792  )
         8           Se  tau(   8) = (   0.2753316   0.3617097   0.1052666  )
         9           Co  tau(   9) = (   0.5000000   0.0000000   0.0000000  )
        10           Co  tau(  10) = (   0.2905854   0.5716019   0.4334458  )
        11           Co  tau(  11) = (  -0.0727120   0.5822451   0.5860881  )
        12           Co  tau(  12) = (   0.4444683   0.0106432   0.7142493  )
        13           Co  tau(  13) = (   0.6538829   0.5609586   0.2808035  )
        14           Co  tau(  14) = (   0.1367026   1.1325605   0.1526423  )
        15           O   tau(  15) = (  -0.0354590   1.0493010   0.6607188  )
        16           O   tau(  16) = (   0.4072153   0.4776991   0.6396186  )
        17           O   tau(  17) = (   0.6166299   0.0939028   0.2061728  )
        18           O   tau(  18) = (   0.1739556   0.6655046   0.2272730  )
        19           O   tau(  19) = (  -0.1745800   0.7597732   0.7266025  )
        20           O   tau(  20) = (   0.5463363   0.1881713   0.5737349  )
        21           O   tau(  21) = (   0.7557509   0.3834305   0.1402891  )
        22           O   tau(  22) = (   0.0348345   0.9550324   0.2931567  )
        23           O   tau(  23) = (  -0.3380248   1.0304038   0.7873196  )
        24           O   tau(  24) = (   0.7097811   0.4588020   0.5130178  )
        25           O   tau(  25) = (   0.9191957   0.1127999   0.0795720  )
        26           O   tau(  26) = (  -0.1286102   0.6844018   0.3538738  )
        27           O   tau(  27) = (   0.0965834   0.4175780   0.5003872  )
        28           O   tau(  28) = (   0.2751728   0.9891799   0.7999502  )
        29           O   tau(  29) = (   0.4845874   0.7256257   0.3665044  )
        30           O   tau(  30) = (   0.3059980   0.1540238   0.0669414  )
        31           O   tau(  31) = (   0.1972582   0.1710004   0.7019135  )
        32           O   tau(  32) = (   0.1744981   0.7426023   0.5984239  )
        33           O   tau(  33) = (   0.3839126   0.9722033   0.1649781  )
        34           O   tau(  34) = (   0.4066728   0.4006015   0.2684677  )
        35           O   tau(  35) = (   0.1733956   0.1218541   0.3842670  )
        36           O   tau(  36) = (   0.6171898   0.6934560   0.0491788  )
        37           O   tau(  37) = (   0.4077752   1.0213496   0.4826246  )
        38           O   tau(  38) = (  -0.0360190   0.4497478   0.8177129  )
        39           Li  tau(  39) = (   0.3639167   0.7333652   0.0701315  )
        40           Li  tau(  40) = (   0.4266687   0.1617633   0.3633143  )
        41           Li  tau(  41) = (   0.2172541   0.4098385   0.7967601  )
        42           Li  tau(  42) = (   0.1545021   0.9814404   0.5035773  )

   Crystallographic axes

     site n.     atom                  positions (cryst. coord.)
         1           Se  tau(   1) = (  0.0938000  0.8275000  0.7367400  )
         2           Se  tau(   2) = (  0.9062000  0.3275000  0.7632600  )
         3           Se  tau(   3) = (  0.9062000  0.1725000  0.2632600  )
         4           Se  tau(   4) = (  0.0938000  0.6725000  0.2367400  )
         5           Se  tau(   5) = (  0.3261900  0.1836000  0.6214300  )
         6           Se  tau(   6) = (  0.6738100  0.6836000  0.8785700  )
         7           Se  tau(   7) = (  0.6738100  0.8164000  0.3785700  )
         8           Se  tau(   8) = (  0.3261900  0.3164000  0.1214300  )
         9           Co  tau(   9) = (  0.5000000  0.0000000  0.0000000  )
        10           Co  tau(  10) = (  0.5000000  0.5000000  0.5000000  )
        11           Co  tau(  11) = (  0.2104500  0.5093100  0.6760800  )
        12           Co  tau(  12) = (  0.7895500  0.0093100  0.8239200  )
        13           Co  tau(  13) = (  0.7895500  0.4906900  0.3239200  )
        14           Co  tau(  14) = (  0.2104500  0.9906900  0.1760800  )
        15           O   tau(  15) = (  0.2837600  0.9178600  0.7621700  )
        16           O   tau(  16) = (  0.7162400  0.4178600  0.7378300  )
        17           O   tau(  17) = (  0.7162400  0.0821400  0.2378300  )
        18           O   tau(  18) = (  0.2837600  0.5821400  0.2621700  )
        19           O   tau(  19) = (  0.1764700  0.6646000  0.8381700  )
        20           O   tau(  20) = (  0.8235300  0.1646000  0.6618300  )
        21           O   tau(  21) = (  0.8235300  0.3354000  0.1618300  )
        22           O   tau(  22) = (  0.1764700  0.8354000  0.3381700  )
        23           O   tau(  23) = (  0.0423600  0.9013300  0.9082100  )
        24           O   tau(  24) = (  0.9576400  0.4013300  0.5917900  )
        25           O   tau(  25) = (  0.9576400  0.0986700  0.0917900  )
        26           O   tau(  26) = (  0.0423600  0.5986700  0.4082100  )
        27           O   tau(  27) = (  0.3383400  0.3652700  0.5772200  )
        28           O   tau(  28) = (  0.6616600  0.8652700  0.9227800  )
        29           O   tau(  29) = (  0.6616600  0.6347300  0.4227800  )
        30           O   tau(  30) = (  0.3383400  0.1347300  0.0772200  )
        31           O   tau(  31) = (  0.5363800  0.1495800  0.8096900  )
        32           O   tau(  32) = (  0.4636200  0.6495800  0.6903100  )
        33           O   tau(  33) = (  0.4636200  0.8504200  0.1903100  )
        34           O   tau(  34) = (  0.5363800  0.3504200  0.3096900  )
        35           O   tau(  35) = (  0.3590500  0.1065900  0.4432700  )
        36           O   tau(  36) = (  0.6409500  0.6065900  0.0567300  )
        37           O   tau(  37) = (  0.6409500  0.8934100  0.5567300  )
        38           O   tau(  38) = (  0.3590500  0.3934100  0.9432700  )
[...]
     atom   32 type  3   force =    -6.78325851    4.38592964   -4.63345926
     atom   33 type  3   force =    -6.78325851   -4.38592964   -4.63345926
     atom   34 type  3   force =     6.78325851   -4.38592964    4.63345926
     atom   35 type  3   force =     4.85872599   -3.85355834   -4.57856574
     atom   36 type  3   force =    -4.85872599   -3.85355834    4.57856574
     atom   37 type  3   force =    -4.85872599    3.85355834    4.57856574
     atom   38 type  3   force =     4.85872599    3.85355834   -4.57856574
     atom   39 type  2   force =    -0.96375940   -0.55115245   -0.92844803
     atom   40 type  2   force =     0.96375940   -0.55115245    0.92844803
     atom   41 type  2   force =     0.96375940    0.55115245    0.92844803
     atom   42 type  2   force =    -0.96375940    0.55115245   -0.92844803
     The local contribution  to forces
     atom    1 type  4   force =     7.92883434   -1.22718188   20.97405739
     atom    2 type  4   force =    -7.92889292   -1.22701172  -20.97410037
     atom    3 type  4   force =    -7.92883434    1.22718188  -20.97405739
     atom    4 type  4   force =     7.92889292    1.22701172   20.97410037
     atom    5 type  4   force =    20.70912719    6.72344421    3.39717671
     atom    6 type  4   force =   -20.70910402    6.72322055   -3.39726776
     atom    7 type  4   force =   -20.70912719   -6.72344421   -3.39717671
     atom    8 type  4   force =    20.70910402   -6.72322055    3.39726776
     atom    9 type  1   force =     0.00000000   -0.00000000    0.00000000
     atom   10 type  1   force =     0.00000000    0.00000000    0.00000000
     atom   11 type  1   force =     4.67694028   -1.05939762   -6.07937642
     atom   12 type  1   force =    -4.67686634   -1.05939132    6.07931674
     atom   13 type  1   force =    -4.67694028    1.05939762    6.07937642
     atom   14 type  1   force =     4.67686634    1.05939132   -6.07931674
     atom   15 type  3   force =    -3.61191154   -3.18467607    8.11154933
     atom   16 type  3   force =     3.61187203   -3.18462009   -8.11163596
     atom   17 type  3   force =     3.61191154    3.18467607   -8.11154933
     atom   18 type  3   force =    -3.61187203    3.18462009    8.11163596
     atom   19 type  3   force =     4.51942167    6.09487971   -8.89937653
     atom   20 type  3   force =    -4.51942064    6.09494025    8.89935811
     atom   21 type  3   force =    -4.51942167   -6.09487971    8.89937653
     atom   22 type  3   force =     4.51942064   -6.09494025   -8.89935811
     atom   23 type  3   force =     3.28377060    2.33882681   -1.59243086
     atom   24 type  3   force =    -3.28378265    2.33886938    1.59242079
     atom   25 type  3   force =    -3.28377060   -2.33882681    1.59243086
     atom   26 type  3   force =     3.28378265   -2.33886938   -1.59242079
     atom   27 type  3   force =     0.71554179   -0.16856727    4.05563746
     atom   28 type  3   force =    -0.71545775   -0.16867667   -4.05567834
     atom   29 type  3   force =    -0.71554179    0.16856727   -4.05563746
     atom   30 type  3   force =     0.71545775    0.16867667    4.05567834
     atom   31 type  3   force =    -5.95470850   -4.42836485   -3.85504768
     atom   32 type  3   force =     5.95475991   -4.42848344    3.85496763
     atom   33 type  3   force =     5.95470850    4.42836485    3.85504768
     atom   34 type  3   force =    -5.95475991    4.42848344   -3.85496763
     atom   35 type  3   force =    -4.09659418    3.37937254    3.75378750
     atom   36 type  3   force =     4.09659584    3.37931753   -3.75378473
     atom   37 type  3   force =     4.09659418   -3.37937254   -3.75378750
     atom   38 type  3   force =    -4.09659584   -3.37931753    3.75378473
     atom   39 type  2   force =     0.94601420    0.58193687    0.90332244
     atom   40 type  2   force =    -0.94602148    0.58196877   -0.90330804
     atom   41 type  2   force =    -0.94601420   -0.58193687   -0.90332244
     atom   42 type  2   force =     0.94602148   -0.58196877    0.90330804
     The core correction contribution to forces
     atom    1 type  4   force =    -0.00728450   -0.00023826   -0.01539049
     atom    2 type  4   force =     0.00728444   -0.00023782    0.01539051
     atom    3 type  4   force =     0.00728450    0.00023826    0.01539049
     atom    4 type  4   force =    -0.00728444    0.00023782   -0.01539051
     atom    5 type  4   force =    -0.01474969   -0.00174569    0.00530420
     atom    6 type  4   force =     0.01474948   -0.00174618   -0.00530395
     atom    7 type  4   force =     0.01474969    0.00174569   -0.00530420
     atom    8 type  4   force =    -0.01474948    0.00174618    0.00530395
     atom    9 type  1   force =    -0.00000000   -0.00000000   -0.00000000
     atom   10 type  1   force =     0.00000000    0.00000000   -0.00000000
     atom   11 type  1   force =     0.00679854   -0.00027250    0.00883891
     atom   12 type  1   force =    -0.00679979   -0.00027329   -0.00883897
     atom   13 type  1   force =    -0.00679854    0.00027250   -0.00883891
     atom   14 type  1   force =     0.00679979    0.00027329    0.00883897
     atom   15 type  3   force =     0.02274773    0.01271129   -0.00906013
     atom   16 type  3   force =    -0.02274757    0.01271117    0.00905994
     atom   17 type  3   force =    -0.02274773   -0.01271129    0.00906013
     atom   18 type  3   force =     0.02274757   -0.01271117   -0.00905994
     atom   19 type  3   force =    -0.00255764   -0.02093059    0.02258418
     atom   20 type  3   force =     0.00255788   -0.02093063   -0.02258455
     atom   21 type  3   force =     0.00255764    0.02093059   -0.02258418
     atom   22 type  3   force =    -0.00255788    0.02093063    0.02258455
     atom   23 type  3   force =    -0.01735885    0.00467061    0.01750649
     atom   24 type  3   force =     0.01735891    0.00467059   -0.01750647
     atom   25 type  3   force =     0.01735885   -0.00467061   -0.01750649
     atom   26 type  3   force =    -0.01735891   -0.00467059    0.01750647
     atom   27 type  3   force =     0.00199972    0.01594891   -0.00797321
     atom   28 type  3   force =    -0.00199913    0.01594845    0.00797281
     atom   29 type  3   force =    -0.00199972   -0.01594891    0.00797321
     atom   30 type  3   force =     0.00199913   -0.01594845   -0.00797281
     atom   31 type  3   force =     0.02081764    0.00292292    0.01708195
     atom   32 type  3   force =    -0.02081721    0.00292234   -0.01708245
     atom   33 type  3   force =    -0.02081764   -0.00292292   -0.01708195
     atom   34 type  3   force =     0.02081721   -0.00292234    0.01708245
     atom   35 type  3   force =     0.02052614   -0.00948583   -0.01666135
     atom   36 type  3   force =    -0.02052610   -0.00948580    0.01666124
     atom   37 type  3   force =    -0.02052614    0.00948583    0.01666135
     atom   38 type  3   force =     0.02052610    0.00948580   -0.01666124
     atom   39 type  2   force =     0.00000000    0.00000000    0.00000000
     atom   40 type  2   force =     0.00000000    0.00000000    0.00000000
     atom   41 type  2   force =     0.00000000    0.00000000    0.00000000
     atom   42 type  2   force =     0.00000000    0.00000000    0.00000000
     The Hubbard contrib.    to forces
     atom    1 type  4   force =     0.00000000    0.00000000    0.00000000
     atom    2 type  4   force =     0.00000000    0.00000000    0.00000000
     atom    3 type  4   force =     0.00000000    0.00000000    0.00000000
     atom    4 type  4   force =     0.00000000    0.00000000    0.00000000
     atom    5 type  4   force =     0.00000000    0.00000000    0.00000000
     atom    6 type  4   force =     0.00000000    0.00000000    0.00000000
     atom    7 type  4   force =     0.00000000    0.00000000    0.00000000
     atom    8 type  4   force =     0.00000000    0.00000000    0.00000000
     atom    9 type  1   force =     0.00000000    0.00000000    0.00000000
     atom   10 type  1   force =     0.00000000    0.00000000    0.00000000
     atom   11 type  1   force =     0.00000000    0.00000000    0.00000000
     atom   12 type  1   force =     0.00000000    0.00000000    0.00000000
     atom   13 type  1   force =     0.00000000    0.00000000    0.00000000
     atom   14 type  1   force =     0.00000000    0.00000000    0.00000000
     atom   15 type  3   force =     0.00000000    0.00000000    0.00000000
     atom   16 type  3   force =     0.00000000    0.00000000    0.00000000
     atom   17 type  3   force =     0.00000000    0.00000000    0.00000000
     atom   18 type  3   force =     0.00000000    0.00000000    0.00000000
     atom   19 type  3   force =     0.00000000    0.00000000    0.00000000
     atom   20 type  3   force =     0.00000000    0.00000000    0.00000000
     atom   21 type  3   force =     0.00000000    0.00000000    0.00000000
     atom   22 type  3   force =     0.00000000    0.00000000    0.00000000
     atom   23 type  3   force =     0.00000000    0.00000000    0.00000000
     atom   24 type  3   force =     0.00000000    0.00000000    0.00000000
     atom   25 type  3   force =     0.00000000    0.00000000    0.00000000
     atom   26 type  3   force =     0.00000000    0.00000000    0.00000000
     atom   27 type  3   force =     0.00000000    0.00000000    0.00000000
     atom   28 type  3   force =     0.00000000    0.00000000    0.00000000
     atom   29 type  3   force =     0.00000000    0.00000000    0.00000000
     atom   30 type  3   force =     0.00000000    0.00000000    0.00000000
     atom   31 type  3   force =     0.00000000    0.00000000    0.00000000
     atom   32 type  3   force =     0.00000000    0.00000000    0.00000000
     atom   33 type  3   force =     0.00000000    0.00000000    0.00000000
     atom   34 type  3   force =     0.00000000    0.00000000    0.00000000
     atom   35 type  3   force =     0.00000000    0.00000000    0.00000000
     atom   36 type  3   force =     0.00000000    0.00000000    0.00000000
     atom   37 type  3   force =     0.00000000    0.00000000    0.00000000
     atom   38 type  3   force =     0.00000000    0.00000000    0.00000000
     atom   39 type  2   force =     0.00000000    0.00000000    0.00000000
     atom   40 type  2   force =     0.00000000    0.00000000    0.00000000
     atom   41 type  2   force =     0.00000000    0.00000000    0.00000000
     atom   42 type  2   force =     0.00000000    0.00000000    0.00000000
     The SCF correction term to forces
     atom    1 type  4   force =     0.00009788    0.00027762   -0.00013295
     atom    2 type  4   force =    -0.00003460    0.00010322    0.00017540
     atom    3 type  4   force =    -0.00009788   -0.00027762    0.00013295
     atom    4 type  4   force =     0.00003460   -0.00010322   -0.00017540
     atom    5 type  4   force =    -0.00001281   -0.00003070    0.00012974
     atom    6 type  4   force =    -0.00001707    0.00020014   -0.00004176
     atom    7 type  4   force =     0.00001281    0.00003070   -0.00012974
     atom    8 type  4   force =     0.00001707   -0.00020014    0.00004176
     atom    9 type  1   force =     0.00000000   -0.00000000    0.00000000
     atom   10 type  1   force =     0.00000000    0.00000000   -0.00000000
     atom   11 type  1   force =     0.00036544   -0.00011999    0.00024023
     atom   12 type  1   force =    -0.00045277   -0.00012483   -0.00017701
     atom   13 type  1   force =    -0.00036544    0.00011999   -0.00024023
     atom   14 type  1   force =     0.00045277    0.00012483    0.00017701
     atom   15 type  3   force =     0.00011044    0.00021187    0.00031558
     atom   16 type  3   force =    -0.00007018    0.00015378   -0.00023313
     atom   17 type  3   force =    -0.00011044   -0.00021187   -0.00031558
     atom   18 type  3   force =     0.00007018   -0.00015378    0.00023313
     atom   19 type  3   force =    -0.00005170    0.00003872   -0.00008813
     atom   20 type  3   force =     0.00005390   -0.00002324    0.00010042
     atom   21 type  3   force =     0.00005170   -0.00003872    0.00008813
     atom   22 type  3   force =    -0.00005390    0.00002324   -0.00010042
     atom   23 type  3   force =     0.00007962   -0.00002330   -0.00010450
     atom   24 type  3   force =    -0.00006599   -0.00006794    0.00011500
     atom   25 type  3   force =    -0.00007962    0.00002330    0.00010450
     atom   26 type  3   force =     0.00006599    0.00006794   -0.00011500
     atom   27 type  3   force =     0.00019644    0.00002490   -0.00004961
     atom   28 type  3   force =    -0.00027326    0.00012594    0.00008575
     atom   29 type  3   force =    -0.00019644   -0.00002490    0.00004961
     atom   30 type  3   force =     0.00027326   -0.00012594   -0.00008575
     atom   31 type  3   force =    -0.00021861   -0.00037185    0.00017285
     atom   32 type  3   force =     0.00017251   -0.00026299   -0.00009848
     atom   33 type  3   force =     0.00021861    0.00037185   -0.00017285
     atom   34 type  3   force =    -0.00017251    0.00026299    0.00009848
     atom   35 type  3   force =    -0.00013345   -0.00005835   -0.00001974
     atom   36 type  3   force =     0.00013179   -0.00000174    0.00001653
     atom   37 type  3   force =     0.00013345    0.00005835    0.00001974
     atom   38 type  3   force =    -0.00013179    0.00000174   -0.00001653
     atom   39 type  2   force =     0.00000886   -0.00001572    0.00004155
     atom   40 type  2   force =    -0.00000153   -0.00004744   -0.00005595
     atom   41 type  2   force =    -0.00000886    0.00001572   -0.00004155
     atom   42 type  2   force =     0.00000153    0.00004744    0.00005595

     Total force =     0.352298     Total SCF correction =     0.001721

     Computing stress (Cartesian axis) and pressure

          total   stress  (Ry/bohr**3)                   (kbar)     P=      -30.95
  -0.00017250   0.00000001  -0.00000548          -25.38        0.00       -0.81
   0.00000001  -0.00018309  -0.00000004            0.00      -26.93       -0.01
  -0.00000548  -0.00000004  -0.00027556           -0.81       -0.01      -40.54

     kinetic stress (kbar)  73810.67      0.00    129.15
                                0.00  73521.41      0.02
                              129.15      0.02  73628.34

     local   stress (kbar) -13890.39      0.00   3541.06
                                0.00 -19862.07     -0.02
                             3541.06     -0.02 -13693.37

     nonloc. stress (kbar) -36610.54     -0.00    -21.06
                               -0.00 -36620.86     -0.01
                              -21.06     -0.01 -36560.82

     hartree stress (kbar)  21467.60     -0.00  -1447.37
                               -0.00  23534.17      0.01
                            -1447.37      0.01  21056.61

     exc-cor stress (kbar)   6717.59      0.00     -0.61
                                0.00   6718.39      0.00
                               -0.61      0.00   6718.37

     corecor stress (kbar) -16590.56     -0.00     -1.70
                               -0.00 -16587.13     -0.00
                               -1.70     -0.00 -16588.52

     ewald   stress (kbar) -34929.74      0.00  -2200.27
                                0.00 -30730.84     -0.00
                            -2200.27     -0.00 -34601.13

     hubbard stress (kbar)      0.00      0.00      0.00
                                0.00      0.00      0.00
                                0.00      0.00      0.00

     DFT-D   stress (kbar)      0.00      0.00      0.00
                                0.00      0.00      0.00
                                0.00      0.00      0.00

     XDM     stress (kbar)      0.00      0.00      0.00
                                0.00      0.00      0.00
                                0.00      0.00      0.00

     dft-nl  stress (kbar)      0.00      0.00      0.00
                                0.00      0.00      0.00
                                0.00      0.00      0.00

     TS-vdW  stress (kbar)      0.00      0.00      0.00
                                0.00      0.00      0.00
                                0.00      0.00      0.00

     MDB     stress (kbar)      0.00      0.00      0.00
                                0.00      0.00      0.00
                                0.00      0.00      0.00

     3D-RISM stress (kbar)      0.00      0.00      0.00
                                0.00      0.00      0.00
                                0.00      0.00      0.00

     Writing all to output data dir ./out/lcso.save/

     General routines

     Parallel routines

   This run was terminated on:  19:20:51   9May2024

   JOB DONE.