     Program PWSCF v.7.2 starts on  3May2024 at 17:12: 3

     Reading input from ncso_scf.in

     Current dimensions of program PWSCF are:
     Max number of different atomic species (ntypx) = 10
     Max number of k-points (npk) =  40000
     Max angular momentum in pseudopotentials (lmaxx) =  4
     Message from routine setup:
     using ibrav=0 with symmetry is DISCOURAGED, use correct ibrav instead

     R & G space division:  proc/nbgrp/npool/nimage =      36
     Subspace diagonalization in iterative solution of the eigenvalue problem:
     one sub-group per band group will be used

     Using Slab Decomposition

     bravais-lattice index     =            0
     lattice parameter (alat)  =      15.2665  a.u.
     unit-cell volume          =    3526.2206 (a.u.)^3
     number of atoms/cell      =           42
     number of atomic types    =            4
     number of electrons       =       410.00
     number of Kohn-Sham states=          500
     kinetic-energy cutoff     =     100.0000  Ry
     charge density cutoff     =     400.0000  Ry
     scf convergence threshold =      1.0E-06
     mixing beta               =       0.2000
     number of iterations used =            8  plain     mixing
     Exchange-correlation= PBESOL
                           (   1   4  10   8   0   0   0)

     celldm(1)=  15.266530  celldm(2)=   0.000000  celldm(3)=   0.000000
     celldm(4)=   0.000000  celldm(5)=   0.000000  celldm(6)=   0.000000

     crystal axes: (cart. coord. in units of alat)
               a(1) = (   1.000000   0.000000   0.000000 )
               a(2) = (   0.000000   1.143204   0.000000 )
               a(3) = (  -0.418829   0.000000   0.866892 )

     reciprocal axes: (cart. coord. in units 2 pi/alat)
               b(1) = (  1.000000  0.000000  0.483139 )
               b(2) = (  0.000000  0.874735  0.000000 )
               b(3) = (  0.000000  0.000000  1.153547 )

     PseudoPot. # 1 for Co read from file:
     /projects/p31387/PP/PBEsol_NC_SR/Co.upf
     MD5 check sum: da2f8eda8ae963674925720b0359a264
     Pseudo is Norm-conserving + core correction, Zval = 17.0
     Generated using ONCVPSP code by D. R. Hamann
     Using radial grid of 1388 points,  6 beta functions with:
                l(1) =   0
                l(2) =   0
                l(3) =   1
                l(4) =   1
                l(5) =   2
                l(6) =   2

     PseudoPot. # 2 for Na read from file:
     /projects/p31387/PP/PBEsol_NC_SR/Na.upf
     MD5 check sum: 3cf33920b0d224cc73e566865edb8ea2
     Pseudo is Norm-conserving, Zval =  9.0
     Generated using ONCVPSP code by D. R. Hamann
     Using radial grid of 2016 points,  4 beta functions with:
                l(1) =   0
                l(2) =   0
                l(3) =   1
                l(4) =   1

     PseudoPot. # 3 for O  read from file:
     /projects/p31387/PP/PBEsol_NC_SR/O.upf
     MD5 check sum: f226cbcd508cec715ff87a8f75a1dfba
     Pseudo is Norm-conserving + core correction, Zval =  6.0
     Generated using ONCVPSP code by D. R. Hamann
     Using radial grid of  936 points,  5 beta functions with:
                l(1) =   0
                l(2) =   0
                l(3) =   1
                l(4) =   1
                l(5) =   2

     PseudoPot. # 4 for Se read from file:
     /projects/p31387/PP/PBEsol_NC_SR/Se.upf
     MD5 check sum: c42e2feaec75ccac7da27b7ff1240b9c
     Pseudo is Norm-conserving + core correction, Zval = 16.0
     Generated using ONCVPSP code by D. R. Hamann
     Using radial grid of 1198 points,  6 beta functions with:
                l(1) =   0
                l(2) =   0
                l(3) =   1
                l(4) =   1
                l(5) =   2
                l(6) =   2

     atomic species   valence    mass     pseudopotential
        Co            17.00    58.93319     Co( 1.00)
        Na             9.00    22.99000     Na( 1.00)
        O              6.00    15.99940     O ( 1.00)
        Se            16.00    78.96000     Se( 1.00)

      2 Sym. Ops., with inversion, found

                                    s                        frac. trans.

      isym =  1     identity

 cryst.   s( 1) = (     1          0          0      )
                  (     0          1          0      )
                  (     0          0          1      )

 cart.    s( 1) = (  1.0000000  0.0000000  0.0000000 )
                  (  0.0000000  1.0000000  0.0000000 )
                  (  0.0000000  0.0000000  1.0000000 )

      isym =  2     inversion

 cryst.   s( 2) = (    -1          0          0      )
                  (     0         -1          0      )
                  (     0          0         -1      )

 cart.    s( 2) = ( -1.0000000  0.0000000  0.0000000 )
                  (  0.0000000 -1.0000000  0.0000000 )
                  (  0.0000000  0.0000000 -1.0000000 )

   Cartesian axes

     site n.     atom                  positions (alat units)
         1           Se  tau(   1) = (  -0.2147682   0.9460011   0.6386737  )
         2           Se  tau(   2) = (   0.5865245   0.3743992   0.6616637  )
         3           Se  tau(   3) = (   0.7959390   0.1972026   0.2282179  )
         4           Se  tau(   4) = (  -0.0053536   0.7688045   0.2052279  )
         5           Se  tau(   5) = (   0.0659170   0.2098922   0.5387125  )
         6           Se  tau(   6) = (   0.3058393   0.7814941   0.7616250  )
         7           Se  tau(   7) = (   0.5152538   0.9333115   0.3281792  )
         8           Se  tau(   8) = (   0.2753316   0.3617097   0.1052666  )
         9           Co  tau(   9) = (   0.5000000   0.0000000   0.0000000  )
        10           Co  tau(  10) = (   0.2905854   0.5716019   0.4334458  )
        11           Co  tau(  11) = (  -0.0727120   0.5822451   0.5860881  )
        12           Co  tau(  12) = (   0.4444683   0.0106432   0.7142493  )
        13           Co  tau(  13) = (   0.6538829   0.5609586   0.2808035  )
        14           Co  tau(  14) = (   0.1367026   1.1325605   0.1526423  )
        15           O   tau(  15) = (  -0.0354590   1.0493010   0.6607188  )
        16           O   tau(  16) = (   0.4072153   0.4776991   0.6396186  )
        17           O   tau(  17) = (   0.6166299   0.0939028   0.2061728  )
        18           O   tau(  18) = (   0.1739556   0.6655046   0.2272730  )
        19           O   tau(  19) = (  -0.1745800   0.7597732   0.7266025  )
        20           O   tau(  20) = (   0.5463363   0.1881713   0.5737349  )
        21           O   tau(  21) = (   0.7557509   0.3834305   0.1402891  )
        22           O   tau(  22) = (   0.0348345   0.9550324   0.2931567  )
        23           O   tau(  23) = (  -0.3380248   1.0304038   0.7873196  )
        24           O   tau(  24) = (   0.7097811   0.4588020   0.5130178  )
        25           O   tau(  25) = (   0.9191957   0.1127999   0.0795720  )
        26           O   tau(  26) = (  -0.1286102   0.6844018   0.3538738  )
        27           O   tau(  27) = (   0.0965834   0.4175780   0.5003872  )
        28           O   tau(  28) = (   0.2751728   0.9891799   0.7999502  )
        29           O   tau(  29) = (   0.4845874   0.7256257   0.3665044  )
        30           O   tau(  30) = (   0.3059980   0.1540238   0.0669414  )
        31           O   tau(  31) = (   0.1972582   0.1710004   0.7019135  )
        32           O   tau(  32) = (   0.1744981   0.7426023   0.5984239  )
        33           O   tau(  33) = (   0.3839126   0.9722033   0.1649781  )
        34           O   tau(  34) = (   0.4066728   0.4006015   0.2684677  )
        35           O   tau(  35) = (   0.1733956   0.1218541   0.3842670  )
        36           O   tau(  36) = (   0.6171898   0.6934560   0.0491788  )
        37           O   tau(  37) = (   0.4077752   1.0213496   0.4826246  )
        38           O   tau(  38) = (  -0.0360190   0.4497478   0.8177129  )
        39           Na  tau(  39) = (   0.3639167   0.7333652   0.0701315  )
        40           Na  tau(  40) = (   0.4266687   0.1617633   0.3633143  )
        41           Na  tau(  41) = (   0.2172541   0.4098385   0.7967601  )
        42           Na  tau(  42) = (   0.1545021   0.9814404   0.5035773  )

   Crystallographic axes

     site n.     atom                  positions (cryst. coord.)
         1           Se  tau(   1) = (  0.0938000  0.8275000  0.7367400  )
         2           Se  tau(   2) = (  0.9062000  0.3275000  0.7632600  )
         3           Se  tau(   3) = (  0.9062000  0.1725000  0.2632600  )
         4           Se  tau(   4) = (  0.0938000  0.6725000  0.2367400  )
         5           Se  tau(   5) = (  0.3261900  0.1836000  0.6214300  )
         6           Se  tau(   6) = (  0.6738100  0.6836000  0.8785700  )
         7           Se  tau(   7) = (  0.6738100  0.8164000  0.3785700  )
         8           Se  tau(   8) = (  0.3261900  0.3164000  0.1214300  )
         9           Co  tau(   9) = (  0.5000000  0.0000000  0.0000000  )
        10           Co  tau(  10) = (  0.5000000  0.5000000  0.5000000  )
        11           Co  tau(  11) = (  0.2104500  0.5093100  0.6760800  )
        12           Co  tau(  12) = (  0.7895500  0.0093100  0.8239200  )
        13           Co  tau(  13) = (  0.7895500  0.4906900  0.3239200  )
        14           Co  tau(  14) = (  0.2104500  0.9906900  0.1760800  )
        15           O   tau(  15) = (  0.2837600  0.9178600  0.7621700  )
        16           O   tau(  16) = (  0.7162400  0.4178600  0.7378300  )
        17           O   tau(  17) = (  0.7162400  0.0821400  0.2378300  )
        18           O   tau(  18) = (  0.2837600  0.5821400  0.2621700  )
        19           O   tau(  19) = (  0.1764700  0.6646000  0.8381700  )
        20           O   tau(  20) = (  0.8235300  0.1646000  0.6618300  )
        21           O   tau(  21) = (  0.8235300  0.3354000  0.1618300  )
        22           O   tau(  22) = (  0.1764700  0.8354000  0.3381700  )
        23           O   tau(  23) = (  0.0423600  0.9013300  0.9082100  )
        24           O   tau(  24) = (  0.9576400  0.4013300  0.5917900  )
        25           O   tau(  25) = (  0.9576400  0.0986700  0.0917900  )
        26           O   tau(  26) = (  0.0423600  0.5986700  0.4082100  )
        27           O   tau(  27) = (  0.3383400  0.3652700  0.5772200  )
        28           O   tau(  28) = (  0.6616600  0.8652700  0.9227800  )
        29           O   tau(  29) = (  0.6616600  0.6347300  0.4227800  )
        30           O   tau(  30) = (  0.3383400  0.1347300  0.0772200  )
        31           O   tau(  31) = (  0.5363800  0.1495800  0.8096900  )
        32           O   tau(  32) = (  0.4636200  0.6495800  0.6903100  )
        33           O   tau(  33) = (  0.4636200  0.8504200  0.1903100  )
        34           O   tau(  34) = (  0.5363800  0.3504200  0.3096900  )
        35           O   tau(  35) = (  0.3590500  0.1065900  0.4432700  )
        36           O   tau(  36) = (  0.6409500  0.6065900  0.0567300  )
        37           O   tau(  37) = (  0.6409500  0.8934100  0.5567300  )
        38           O   tau(  38) = (  0.3590500  0.3934100  0.9432700  )
[...]
     atom   32 type  3   force =    -6.20941852    1.75008802   -4.44115330
     atom   33 type  3   force =    -6.20941852   -1.75008802   -4.44115330
     atom   34 type  3   force =     6.20941852   -1.75008802    4.44115330
     atom   35 type  3   force =     0.67112302   -2.33174923   -5.66364659
     atom   36 type  3   force =    -0.67112302   -2.33174923    5.66364659
     atom   37 type  3   force =    -0.67112302    2.33174923    5.66364659
     atom   38 type  3   force =     0.67112302    2.33174923   -5.66364659
     atom   39 type  2   force =    -3.93235122   -1.21935889   -2.68665094
     atom   40 type  2   force =     3.93235122   -1.21935889    2.68665094
     atom   41 type  2   force =     3.93235122    1.21935889    2.68665094
     atom   42 type  2   force =    -3.93235122    1.21935889   -2.68665094
     The local contribution  to forces
     atom    1 type  4   force =    12.27232281   -2.24651779   22.22934747
     atom    2 type  4   force =   -12.27283787   -2.24686467  -22.22922216
     atom    3 type  4   force =   -12.27232281    2.24651779  -22.22934747
     atom    4 type  4   force =    12.27283787    2.24686467   22.22922216
     atom    5 type  4   force =    26.70027317    5.41679372    5.47717792
     atom    6 type  4   force =   -26.69995549    5.41682613   -5.47769390
     atom    7 type  4   force =   -26.70027317   -5.41679372   -5.47717792
     atom    8 type  4   force =    26.69995549   -5.41682613    5.47769390
     atom    9 type  1   force =     0.00000000   -0.00000000    0.00000000
     atom   10 type  1   force =     0.00000000    0.00000000    0.00000000
     atom   11 type  1   force =     9.20152953    0.41316245   -0.81909394
     atom   12 type  1   force =    -9.20106729    0.41316697    0.81904799
     atom   13 type  1   force =    -9.20152953   -0.41316245    0.81909394
     atom   14 type  1   force =     9.20106729   -0.41316697   -0.81904799
     atom   15 type  3   force =    -0.07132904   -4.75842523    6.43310579
     atom   16 type  3   force =     0.07113540   -4.75834327   -6.43345565
     atom   17 type  3   force =     0.07132904    4.75842523   -6.43310579
     atom   18 type  3   force =    -0.07113540    4.75834327    6.43345565
     atom   19 type  3   force =     7.85248267    5.73692480   -4.97280585
     atom   20 type  3   force =    -7.85265592    5.73669538    4.97300502
     atom   21 type  3   force =    -7.85248267   -5.73692480    4.97280585
     atom   22 type  3   force =     7.85265592   -5.73669538   -4.97300502
     atom   23 type  3   force =     3.90551298    1.92680504   -1.40349776
     atom   24 type  3   force =    -3.90580302    1.92649970    1.40366933
     atom   25 type  3   force =    -3.90551298   -1.92680504    1.40349776
     atom   26 type  3   force =     3.90580302   -1.92649970   -1.40366933
     atom   27 type  3   force =     2.53152513   -0.43680158    6.14616445
     atom   28 type  3   force =    -2.53093092   -0.43685113   -6.14644063
     atom   29 type  3   force =    -2.53152513    0.43680158   -6.14616445
     atom   30 type  3   force =     2.53093092    0.43685113    6.14644063
     atom   31 type  3   force =    -5.38903819   -1.77074449   -3.64971437
     atom   32 type  3   force =     5.38947637   -1.77089356    3.64939420
     atom   33 type  3   force =     5.38903819    1.77074449    3.64971437
     atom   34 type  3   force =    -5.38947637    1.77089356   -3.64939420
     atom   35 type  3   force =     0.11541109    1.87249810    4.84577075
     atom   36 type  3   force =    -0.11540943    1.87259621   -4.84596900
     atom   37 type  3   force =    -0.11541109   -1.87249810   -4.84577075
     atom   38 type  3   force =     0.11540943   -1.87259621    4.84596900
     atom   39 type  2   force =     3.88790170    1.28825840    2.62619745
     atom   40 type  2   force =    -3.88811530    1.28825312   -2.62593169
     atom   41 type  2   force =    -3.88790170   -1.28825840   -2.62619745
     atom   42 type  2   force =     3.88811530   -1.28825312    2.62593169
     The core correction contribution to forces
     atom    1 type  4   force =    -0.00724975   -0.00026045   -0.01513977
     atom    2 type  4   force =     0.00724955   -0.00026051    0.01513978
     atom    3 type  4   force =     0.00724975    0.00026045    0.01513977
     atom    4 type  4   force =    -0.00724955    0.00026051   -0.01513978
     atom    5 type  4   force =    -0.01444204   -0.00134389    0.00533024
     atom    6 type  4   force =     0.01444242   -0.00134387   -0.00533066
     atom    7 type  4   force =     0.01444204    0.00134389   -0.00533024
     atom    8 type  4   force =    -0.01444242    0.00134387    0.00533066
     atom    9 type  1   force =    -0.00000000   -0.00000000    0.00000000
     atom   10 type  1   force =     0.00000000    0.00000000   -0.00000000
     atom   11 type  1   force =     0.00609199   -0.00053434    0.00789530
     atom   12 type  1   force =    -0.00608895   -0.00053541   -0.00789505
     atom   13 type  1   force =    -0.00609199    0.00053434   -0.00789530
     atom   14 type  1   force =     0.00608895    0.00053541    0.00789505
     atom   15 type  3   force =     0.02554397    0.01150276   -0.01196979
     atom   16 type  3   force =    -0.02554422    0.01150299    0.01196798
     atom   17 type  3   force =    -0.02554397   -0.01150276    0.01196979
     atom   18 type  3   force =     0.02554422   -0.01150299   -0.01196798
     atom   19 type  3   force =     0.00058144   -0.02104772    0.02783153
     atom   20 type  3   force =    -0.00058139   -0.02104813   -0.02783091
     atom   21 type  3   force =    -0.00058144    0.02104772   -0.02783153
     atom   22 type  3   force =     0.00058139    0.02104813    0.02783091
     atom   23 type  3   force =    -0.01711718    0.00486384    0.01727256
     atom   24 type  3   force =     0.01711542    0.00486061   -0.01727175
     atom   25 type  3   force =     0.01711718   -0.00486384   -0.01727256
     atom   26 type  3   force =    -0.01711542   -0.00486061    0.01727175
     atom   27 type  3   force =     0.00179765    0.01582485   -0.00795896
     atom   28 type  3   force =    -0.00179520    0.01582378    0.00795721
     atom   29 type  3   force =    -0.00179765   -0.01582485    0.00795896
     atom   30 type  3   force =     0.00179520   -0.01582378   -0.00795721
     atom   31 type  3   force =     0.02078131    0.00658950    0.01881553
     atom   32 type  3   force =    -0.02077861    0.00658826   -0.01881701
     atom   33 type  3   force =    -0.02078131   -0.00658950   -0.01881553
     atom   34 type  3   force =     0.02077861   -0.00658826    0.01881701
     atom   35 type  3   force =     0.02452752   -0.00902387   -0.01638824
     atom   36 type  3   force =    -0.02452799   -0.00902317    0.01638740
     atom   37 type  3   force =    -0.02452752    0.00902387    0.01638824
     atom   38 type  3   force =     0.02452799    0.00902317   -0.01638740
     atom   39 type  2   force =     0.00000000    0.00000000    0.00000000
     atom   40 type  2   force =     0.00000000    0.00000000    0.00000000
     atom   41 type  2   force =     0.00000000    0.00000000    0.00000000
     atom   42 type  2   force =     0.00000000    0.00000000    0.00000000
     The Hubbard contrib.    to forces
     atom    1 type  4   force =     0.00000000    0.00000000    0.00000000
     atom    2 type  4   force =     0.00000000    0.00000000    0.00000000
     atom    3 type  4   force =     0.00000000    0.00000000    0.00000000
     atom    4 type  4   force =     0.00000000    0.00000000    0.00000000
     atom    5 type  4   force =     0.00000000    0.00000000    0.00000000
     atom    6 type  4   force =     0.00000000    0.00000000    0.00000000
     atom    7 type  4   force =     0.00000000    0.00000000    0.00000000
     atom    8 type  4   force =     0.00000000    0.00000000    0.00000000
     atom    9 type  1   force =     0.00000000    0.00000000    0.00000000
     atom   10 type  1   force =     0.00000000    0.00000000    0.00000000
     atom   11 type  1   force =     0.00000000    0.00000000    0.00000000
     atom   12 type  1   force =     0.00000000    0.00000000    0.00000000
     atom   13 type  1   force =     0.00000000    0.00000000    0.00000000
     atom   14 type  1   force =     0.00000000    0.00000000    0.00000000
     atom   15 type  3   force =     0.00000000    0.00000000    0.00000000
     atom   16 type  3   force =     0.00000000    0.00000000    0.00000000
     atom   17 type  3   force =     0.00000000    0.00000000    0.00000000
     atom   18 type  3   force =     0.00000000    0.00000000    0.00000000
     atom   19 type  3   force =     0.00000000    0.00000000    0.00000000
     atom   20 type  3   force =     0.00000000    0.00000000    0.00000000
     atom   21 type  3   force =     0.00000000    0.00000000    0.00000000
     atom   22 type  3   force =     0.00000000    0.00000000    0.00000000
     atom   23 type  3   force =     0.00000000    0.00000000    0.00000000
     atom   24 type  3   force =     0.00000000    0.00000000    0.00000000
     atom   25 type  3   force =     0.00000000    0.00000000    0.00000000
     atom   26 type  3   force =     0.00000000    0.00000000    0.00000000
     atom   27 type  3   force =     0.00000000    0.00000000    0.00000000
     atom   28 type  3   force =     0.00000000    0.00000000    0.00000000
     atom   29 type  3   force =     0.00000000    0.00000000    0.00000000
     atom   30 type  3   force =     0.00000000    0.00000000    0.00000000
     atom   31 type  3   force =     0.00000000    0.00000000    0.00000000
     atom   32 type  3   force =     0.00000000    0.00000000    0.00000000
     atom   33 type  3   force =     0.00000000    0.00000000    0.00000000
     atom   34 type  3   force =     0.00000000    0.00000000    0.00000000
     atom   35 type  3   force =     0.00000000    0.00000000    0.00000000
     atom   36 type  3   force =     0.00000000    0.00000000    0.00000000
     atom   37 type  3   force =     0.00000000    0.00000000    0.00000000
     atom   38 type  3   force =     0.00000000    0.00000000    0.00000000
     atom   39 type  2   force =     0.00000000    0.00000000    0.00000000
     atom   40 type  2   force =     0.00000000    0.00000000    0.00000000
     atom   41 type  2   force =     0.00000000    0.00000000    0.00000000
     atom   42 type  2   force =     0.00000000    0.00000000    0.00000000
     The SCF correction term to forces
     atom    1 type  4   force =     0.00016164   -0.00016076   -0.00024252
     atom    2 type  4   force =     0.00035812    0.00018667    0.00011935
     atom    3 type  4   force =    -0.00016164    0.00016076    0.00024252
     atom    4 type  4   force =    -0.00035812   -0.00018667   -0.00011935
     atom    5 type  4   force =    -0.00031617    0.00008093    0.00023705
     atom    6 type  4   force =    -0.00001475    0.00005186    0.00027758
     atom    7 type  4   force =     0.00031617   -0.00008093   -0.00023705
     atom    8 type  4   force =     0.00001475   -0.00005186   -0.00027758
     atom    9 type  1   force =    -0.00000000   -0.00000000   -0.00000000
     atom   10 type  1   force =    -0.00000000   -0.00000000    0.00000000
     atom   11 type  1   force =    -0.00026144   -0.00006215    0.00005380
     atom   12 type  1   force =    -0.00019146   -0.00006756   -0.00001111
     atom   13 type  1   force =     0.00026144    0.00006215   -0.00005380
     atom   14 type  1   force =     0.00019146    0.00006756    0.00001111
     atom   15 type  3   force =     0.00008648    0.00006273    0.00016581
     atom   16 type  3   force =     0.00010576   -0.00001675    0.00015823
     atom   17 type  3   force =    -0.00008648   -0.00006273   -0.00016581
     atom   18 type  3   force =    -0.00010576    0.00001675   -0.00015823
     atom   19 type  3   force =     0.00006211   -0.00016410   -0.00015360
     atom   20 type  3   force =     0.00011297    0.00006139   -0.00003671
     atom   21 type  3   force =    -0.00006211    0.00016410    0.00015360
     atom   22 type  3   force =    -0.00011297   -0.00006139    0.00003671
     atom   23 type  3   force =     0.00009031   -0.00010894   -0.00008402
     atom   24 type  3   force =     0.00017529    0.00014649   -0.00007530
     atom   25 type  3   force =    -0.00009031    0.00010894    0.00008402
     atom   26 type  3   force =    -0.00017529   -0.00014649    0.00007530
     atom   27 type  3   force =    -0.00030988   -0.00001496    0.00013582
     atom   28 type  3   force =    -0.00024970    0.00002073    0.00011423
     atom   29 type  3   force =     0.00030988    0.00001496   -0.00013582
     atom   30 type  3   force =     0.00024970   -0.00002073   -0.00011423
     atom   31 type  3   force =    -0.00019710   -0.00012761    0.00017600
     atom   32 type  3   force =    -0.00020330    0.00000489    0.00012659
     atom   33 type  3   force =     0.00019710    0.00012761   -0.00017600
     atom   34 type  3   force =     0.00020330   -0.00000489   -0.00012659
     atom   35 type  3   force =    -0.00006857    0.00000215    0.00002147
     atom   36 type  3   force =     0.00005910   -0.00008735    0.00016562
     atom   37 type  3   force =     0.00006857   -0.00000215   -0.00002147
     atom   38 type  3   force =    -0.00005910    0.00008735   -0.00016562
     atom   39 type  2   force =     0.00011072   -0.00006961   -0.00011998
     atom   40 type  2   force =     0.00010117   -0.00006179   -0.00014040
     atom   41 type  2   force =    -0.00011072    0.00006961    0.00011998
     atom   42 type  2   force =    -0.00010117    0.00006179    0.00014040

     Total force =     0.410197     Total SCF correction =     0.001627

     Computing stress (Cartesian axis) and pressure

          total   stress  (Ry/bohr**3)                   (kbar)     P=       26.03
   0.00030241   0.00000005   0.00001991           44.49        0.01        2.93
   0.00000005   0.00008344  -0.00000006            0.01       12.28       -0.01
   0.00001991  -0.00000006   0.00014504            2.93       -0.01       21.34

     kinetic stress (kbar)  78948.59     -0.03    131.81
                               -0.03  78615.93      0.03
                              131.81      0.03  78750.89

     local   stress (kbar)  -7911.59      0.06   5104.27
                                0.06 -20859.24     -0.03
                             5104.27     -0.03 -17130.38

     nonloc. stress (kbar) -39416.15      0.02    -22.81
                                0.02 -39413.17     -0.01
                              -22.81     -0.01 -39362.26

     hartree stress (kbar)  19856.70     -0.03  -2248.29
                               -0.03  25356.12      0.00
                            -2248.29      0.00  23948.21

     exc-cor stress (kbar)   6163.81     -0.00     -0.52
                               -0.00   6164.10      0.00
                               -0.52      0.00   6164.48

     corecor stress (kbar) -16591.06      0.00     -1.69
                                0.00 -16587.50     -0.00
                               -1.69     -0.00 -16588.94

     ewald   stress (kbar) -41005.82      0.00  -2959.85
                                0.00 -33263.97      0.00
                            -2959.85      0.00 -35760.66

     hubbard stress (kbar)      0.00      0.00      0.00
                                0.00      0.00      0.00
                                0.00      0.00      0.00

     DFT-D   stress (kbar)      0.00      0.00      0.00
                                0.00      0.00      0.00
                                0.00      0.00      0.00

     XDM     stress (kbar)      0.00      0.00      0.00
                                0.00      0.00      0.00
                                0.00      0.00      0.00

     dft-nl  stress (kbar)      0.00      0.00      0.00
                                0.00      0.00      0.00
                                0.00      0.00      0.00

     TS-vdW  stress (kbar)      0.00      0.00      0.00
                                0.00      0.00      0.00
                                0.00      0.00      0.00

     MDB     stress (kbar)      0.00      0.00      0.00
                                0.00      0.00      0.00
                                0.00      0.00      0.00

     3D-RISM stress (kbar)      0.00      0.00      0.00
                                0.00      0.00      0.00
                                0.00      0.00      0.00

     Writing all to output data dir ./out/ncso.save/

     General routines

     Parallel routines

   This run was terminated on:  19:44:11   3May2024

   JOB DONE.