     Program PWSCF v.7.2 starts on  3May2024 at 17:11:53

     Reading input from lcso_scf.in

     Current dimensions of program PWSCF are:
     Max number of different atomic species (ntypx) = 10
     Max number of k-points (npk) =  40000
     Max angular momentum in pseudopotentials (lmaxx) =  4
     Message from routine setup:
     using ibrav=0 with symmetry is DISCOURAGED, use correct ibrav instead

     R & G space division:  proc/nbgrp/npool/nimage =      40
     Subspace diagonalization in iterative solution of the eigenvalue problem:
     one sub-group per band group will be used

     Using Slab Decomposition

     bravais-lattice index     =            0
     lattice parameter (alat)  =      18.2315  a.u.
     unit-cell volume          =   11832.6493 (a.u.)^3
     number of atoms/cell      =          138
     number of atomic types    =            4
     number of electrons       =      1026.00
     number of Kohn-Sham states=          616
     kinetic-energy cutoff     =     100.0000  Ry
     charge density cutoff     =     400.0000  Ry
     scf convergence threshold =      3.0E-08
     mixing beta               =       0.2000
     number of iterations used =            8  plain     mixing
     Exchange-correlation= PBESOL
                           (   1   4  10   8   0   0   0)

     celldm(1)=  18.231511  celldm(2)=   0.000000  celldm(3)=   0.000000
     celldm(4)=   0.000000  celldm(5)=   0.000000  celldm(6)=   0.000000

     crystal axes: (cart. coord. in units of alat)
               a(1) = (   1.000000   0.000000   0.000000 )
               a(2) = (  -0.500000   0.866025   0.000000 )
               a(3) = (   0.000000   0.000000   2.254672 )

     reciprocal axes: (cart. coord. in units 2 pi/alat)
               b(1) = (  1.000000  0.577350  0.000000 )
               b(2) = (  0.000000  1.154701  0.000000 )
               b(3) = (  0.000000  0.000000  0.443523 )

     PseudoPot. # 1 for Co read from file:
     /projects/p31387/PP/PBEsol_NC_SR/Co.upf
     MD5 check sum: da2f8eda8ae963674925720b0359a264
     Pseudo is Norm-conserving + core correction, Zval = 17.0
     Generated using ONCVPSP code by D. R. Hamann
     Using radial grid of 1388 points,  6 beta functions with:
                l(1) =   0
                l(2) =   0
                l(3) =   1
                l(4) =   1
                l(5) =   2
                l(6) =   2

     PseudoPot. # 2 for Li read from file:
     /projects/p31387/PP/PBEsol_NC_SR/Li.upf
     MD5 check sum: dc9f6e608df41cc7e5665a263ba47fe0
     Pseudo is Norm-conserving, Zval =  3.0
     Generated using ONCVPSP code by D. R. Hamann
     Using radial grid of 1944 points,  4 beta functions with:
                l(1) =   0
                l(2) =   0
                l(3) =   1
                l(4) =   1

     PseudoPot. # 3 for O  read from file:
     /projects/p31387/PP/PBEsol_NC_SR/O.upf
     MD5 check sum: f226cbcd508cec715ff87a8f75a1dfba
     Pseudo is Norm-conserving + core correction, Zval =  6.0
     Generated using ONCVPSP code by D. R. Hamann
     Using radial grid of  936 points,  5 beta functions with:
                l(1) =   0
                l(2) =   0
                l(3) =   1
                l(4) =   1
                l(5) =   2

     PseudoPot. # 4 for Se read from file:
     /projects/p31387/PP/PBEsol_NC_SR/Se.upf
     MD5 check sum: c42e2feaec75ccac7da27b7ff1240b9c
     Pseudo is Norm-conserving + core correction, Zval = 16.0
     Generated using ONCVPSP code by D. R. Hamann
     Using radial grid of 1198 points,  6 beta functions with:
                l(1) =   0
                l(2) =   0
                l(3) =   1
                l(4) =   1
                l(5) =   2
                l(6) =   2

     atomic species   valence    mass     pseudopotential
        Co            17.00    58.93319     Co( 1.00)
        Li             3.00     6.94100     Li( 1.00)
        O              6.00    15.99940     O ( 1.00)
        Se            16.00    78.96000     Se( 1.00)

      6 Sym. Ops., with inversion, found

                                    s                        frac. trans.

      isym =  1     identity

 cryst.   s( 1) = (     1          0          0      )
                  (     0          1          0      )
                  (     0          0          1      )

 cart.    s( 1) = (  1.0000000  0.0000000  0.0000000 )
                  (  0.0000000  1.0000000  0.0000000 )
                  (  0.0000000  0.0000000  1.0000000 )

      isym =  2     120 deg rotation - cryst. axis [0,0,1]

[...]

      isym =  3     120 deg rotation - cryst. axis [0,0,-1]

[...]

      isym =  4     inversion

[...]

      isym =  5     inv. 120 deg rotation - cryst. axis [0,0,1]

[...]

      isym =  6     inv. 120 deg rotation - cryst. axis [0,0,-1]

 cryst.   s( 6) = (     1          1          0      )
                  (    -1          0          0      )
                  (     0          0         -1      )

 cart.    s( 6) = (  0.5000000 -0.8660254  0.0000000 )
                  (  0.8660254  0.5000000  0.0000000 )
                  (  0.0000000  0.0000000 -1.0000000 )

   Cartesian axes

     site n.     atom                  positions (alat units)
         1           Se  tau(   1) = (   0.5000005   0.2886748   1.3713592  )
         2           Se  tau(   2) = (   0.0000005   0.5773500   2.1229166  )
         3           Se  tau(   3) = (  -0.4999995   0.8660251   0.6198018  )
         4           Se  tau(   4) = (  -0.0000005   0.5773506   0.8833129  )
         5           Se  tau(   5) = (   0.9999995   0.0000003   1.6348703  )
         6           Se  tau(   6) = (   0.4999995   0.2886754   0.1317555  )
         7           Se  tau(   7) = (   0.2068650   0.7118815   1.2450299  )
         8           Se  tau(   8) = (  -0.2199400   0.6892350   1.2450299  )
         9           Se  tau(   9) = (   0.0130750   0.3309343   1.2450299  )
        10           Se  tau(  10) = (   0.2068650   0.1345313   1.9965873  )
        11           Se  tau(  11) = (   0.7800600   0.1118847   1.9965873  )
        12           Se  tau(  12) = (   0.5130750   0.6196094   1.9965873  )
        13           Se  tau(  13) = (   0.7068650   0.4232064   0.4934726  )
        14           Se  tau(  14) = (   0.2800600   0.4005598   0.4934726  )
        15           Se  tau(  15) = (   0.5130750   0.0422592   0.4934726  )
        16           Se  tau(  16) = (   0.2931350   0.1541439   1.0096422  )
        17           Se  tau(  17) = (   0.7199400   0.1767904   1.0096422  )
        18           Se  tau(  18) = (   0.4869250   0.5350911   1.0096422  )
        19           Se  tau(  19) = (  -0.2068650   0.4428190   1.7611995  )
        20           Se  tau(  20) = (   0.2199400   0.4654656   1.7611995  )
        21           Se  tau(  21) = (  -0.0130750   0.8237663   1.7611995  )
        22           Se  tau(  22) = (   0.2931350   0.7314941   0.2580848  )
        23           Se  tau(  23) = (  -0.2800600   0.7541407   0.2580848  )
        24           Se  tau(  24) = (  -0.0130750   0.2464160   0.2580848  )
        25           Co  tau(  25) = (   0.0000000   0.0000000   1.1273360  )
        26           Co  tau(  26) = (   0.5000000   0.2886751   1.8788934  )
        27           Co  tau(  27) = (  -0.0000000   0.5773503   0.3757787  )
        28           Co  tau(  28) = (  -0.0000005   0.5773506   1.5031155  )
        29           Co  tau(  29) = (   0.9999995   0.0000003   0.0000008  )
        30           Co  tau(  30) = (   0.4999995   0.2886754   0.7515581  )
        31           O   tau(  31) = (   0.1850400   0.6184114   1.3955744  )
        32           O   tau(  32) = (  -0.1280800   0.7170690   1.3955744  )
        33           O   tau(  33) = (  -0.0569600   0.3965704   1.3955744  )
        34           O   tau(  34) = (   0.1850400   0.0410612   2.1471318  )
        35           O   tau(  35) = (   0.8719200   0.1397188   2.1471318  )
        36           O   tau(  36) = (   0.4430400   0.6852455   2.1471318  )
        37           O   tau(  37) = (   0.6850400   0.3297363   0.6440170  )
        38           O   tau(  38) = (   0.3719200   0.4283939   0.6440170  )
        39           O   tau(  39) = (   0.4430400   0.1078952   0.6440170  )
        40           O   tau(  40) = (   0.3149600   0.2476140   0.8590977  )
        41           O   tau(  41) = (   0.6280800   0.1489564   0.8590977  )
        42           O   tau(  42) = (   0.5569600   0.4694551   0.8590977  )
        43           O   tau(  43) = (  -0.1850400   0.5362891   1.6106551  )
        44           O   tau(  44) = (   0.1280800   0.4376315   1.6106551  )
        45           O   tau(  45) = (   0.0569600   0.7581302   1.6106551  )
        46           O   tau(  46) = (   0.3149600   0.8249643   0.1075403  )
        47           O   tau(  47) = (  -0.3719200   0.7263066   0.1075403  )
        48           O   tau(  48) = (   0.0569600   0.1807799   0.1075403  )
        49           O   tau(  49) = (   0.4459250   0.4375593   1.4484915  )
        50           O   tau(  50) = (   0.3981000   0.1674027   1.4484915  )
        51           O   tau(  51) = (   0.6559750   0.2610634   1.4484915  )
        52           O   tau(  52) = (  -0.0540750   0.7262345   2.2000489  )
        53           O   tau(  53) = (  -0.1019000   0.4560778   2.2000489  )
        54           O   tau(  54) = (   0.1559750   0.5497385   2.2000489  )
        55           O   tau(  55) = (  -0.0540750   0.1488842   0.6969342  )
        56           O   tau(  56) = (   0.3981000   0.7447530   0.6969342  )
        57           O   tau(  57) = (  -0.3440250   0.8384136   0.6969342  )
        58           O   tau(  58) = (   0.0540750   0.4284661   0.8061806  )
        59           O   tau(  59) = (   0.1019000   0.6986227   0.8061806  )
        60           O   tau(  60) = (  -0.1559750   0.6049620   0.8061806  )
[...]
       124           Li  tau( 124) = (  -0.2542500   0.7221208   2.1869493  )
       125           Li  tau( 125) = (   0.0017500   0.2847780   2.1869493  )
       126           Li  tau( 126) = (   0.2525000   0.7251519   2.1869493  )
       127           Li  tau( 127) = (   0.7457500   0.1447706   0.6838345  )
       128           Li  tau( 128) = (   0.5017500   0.5734532   0.6838345  )
       129           Li  tau( 129) = (   0.2525000   0.1478017   0.6838345  )
       130           Li  tau( 130) = (   0.2542500   0.4325797   0.8192802  )
       131           Li  tau( 131) = (   0.4982500   0.0038971   0.8192802  )
       132           Li  tau( 132) = (   0.7475000   0.4295486   0.8192802  )
       133           Li  tau( 133) = (  -0.2457500   0.7212548   1.5708376  )
       134           Li  tau( 134) = (  -0.0017500   0.2925722   1.5708376  )
       135           Li  tau( 135) = (   0.2475000   0.7182237   1.5708376  )
       136           Li  tau( 136) = (   0.7542500   0.1439046   0.0677228  )
       137           Li  tau( 137) = (   0.4982500   0.5812474   0.0677228  )
       138           Li  tau( 138) = (   0.2475000   0.1408735   0.0677228  )

   Crystallographic axes

     site n.     atom                  positions (cryst. coord.)
[...]
     atom   47 type  3   force =    -0.00796570   -0.01210950   -0.01897058
     atom   48 type  3   force =     0.01446999   -0.00084374   -0.01897058
     atom   49 type  3   force =    -0.00885616    0.02376551    0.01274617
     atom   50 type  3   force =    -0.01615345   -0.01955242    0.01274617
     atom   51 type  3   force =     0.02500962   -0.00421309    0.01274617
     atom   52 type  3   force =    -0.00885617    0.02376551    0.01274617
     atom   53 type  3   force =    -0.01615345   -0.01955243    0.01274617
     atom   54 type  3   force =     0.02500963   -0.00421309    0.01274617
     atom   55 type  3   force =    -0.00885618    0.02376551    0.01274617
     atom   56 type  3   force =    -0.01615345   -0.01955243    0.01274617
     atom   57 type  3   force =     0.02500963   -0.00421308    0.01274617
     atom   58 type  3   force =     0.00885616   -0.02376551   -0.01274617
     atom   59 type  3   force =     0.01615345    0.01955242   -0.01274617
     atom   60 type  3   force =    -0.02500962    0.00421309   -0.01274617
[...]
     atom  124 type  2   force =     0.00000000    0.00000000    0.00000000
     atom  125 type  2   force =     0.00000000    0.00000000    0.00000000
     atom  126 type  2   force =     0.00000000    0.00000000    0.00000000
     atom  127 type  2   force =     0.00000000    0.00000000    0.00000000
     atom  128 type  2   force =     0.00000000    0.00000000    0.00000000
     atom  129 type  2   force =     0.00000000    0.00000000    0.00000000
     atom  130 type  2   force =     0.00000000    0.00000000    0.00000000
     atom  131 type  2   force =     0.00000000    0.00000000    0.00000000
     atom  132 type  2   force =     0.00000000    0.00000000    0.00000000
     atom  133 type  2   force =     0.00000000    0.00000000    0.00000000
     atom  134 type  2   force =     0.00000000    0.00000000    0.00000000
     atom  135 type  2   force =     0.00000000    0.00000000    0.00000000
     atom  136 type  2   force =     0.00000000    0.00000000    0.00000000
     atom  137 type  2   force =     0.00000000    0.00000000    0.00000000
     atom  138 type  2   force =     0.00000000    0.00000000    0.00000000
     The Hubbard contrib.    to forces
     atom    1 type  4   force =     0.00000000    0.00000000    0.00000000
     atom    2 type  4   force =     0.00000000    0.00000000    0.00000000
     atom    3 type  4   force =     0.00000000    0.00000000    0.00000000
     atom    4 type  4   force =     0.00000000    0.00000000    0.00000000
     atom    5 type  4   force =     0.00000000    0.00000000    0.00000000
     atom    6 type  4   force =     0.00000000    0.00000000    0.00000000
     atom    7 type  4   force =     0.00000000    0.00000000    0.00000000
     atom    8 type  4   force =     0.00000000    0.00000000    0.00000000
     atom    9 type  4   force =     0.00000000    0.00000000    0.00000000
     atom   10 type  4   force =     0.00000000    0.00000000    0.00000000
     atom   11 type  4   force =     0.00000000    0.00000000    0.00000000
     atom   12 type  4   force =     0.00000000    0.00000000    0.00000000
     atom   13 type  4   force =     0.00000000    0.00000000    0.00000000
     atom   14 type  4   force =     0.00000000    0.00000000    0.00000000
     atom   15 type  4   force =     0.00000000    0.00000000    0.00000000
     atom   16 type  4   force =     0.00000000    0.00000000    0.00000000
     atom   17 type  4   force =     0.00000000    0.00000000    0.00000000
     atom   18 type  4   force =     0.00000000    0.00000000    0.00000000
     atom   19 type  4   force =     0.00000000    0.00000000    0.00000000
     atom   20 type  4   force =     0.00000000    0.00000000    0.00000000
     atom   21 type  4   force =     0.00000000    0.00000000    0.00000000
     atom   22 type  4   force =     0.00000000    0.00000000    0.00000000
     atom   23 type  4   force =     0.00000000    0.00000000    0.00000000
     atom   24 type  4   force =     0.00000000    0.00000000    0.00000000
     atom   25 type  1   force =     0.00000000    0.00000000    0.00000000
     atom   26 type  1   force =     0.00000000    0.00000000    0.00000000
     atom   27 type  1   force =     0.00000000    0.00000000    0.00000000
     atom   28 type  1   force =     0.00000000    0.00000000    0.00000000
     atom   29 type  1   force =     0.00000000    0.00000000    0.00000000
     atom   30 type  1   force =     0.00000000    0.00000000    0.00000000
     atom   31 type  3   force =     0.00000000    0.00000000    0.00000000
     atom   32 type  3   force =     0.00000000    0.00000000    0.00000000
     atom   33 type  3   force =     0.00000000    0.00000000    0.00000000
     atom   34 type  3   force =     0.00000000    0.00000000    0.00000000
     atom   35 type  3   force =     0.00000000    0.00000000    0.00000000
     atom   36 type  3   force =     0.00000000    0.00000000    0.00000000
     atom   37 type  3   force =     0.00000000    0.00000000    0.00000000
     atom   38 type  3   force =     0.00000000    0.00000000    0.00000000
     atom   39 type  3   force =     0.00000000    0.00000000    0.00000000
     atom   40 type  3   force =     0.00000000    0.00000000    0.00000000
     atom   41 type  3   force =     0.00000000    0.00000000    0.00000000
     atom   42 type  3   force =     0.00000000    0.00000000    0.00000000
     atom   43 type  3   force =     0.00000000    0.00000000    0.00000000
     atom   44 type  3   force =     0.00000000    0.00000000    0.00000000
     atom   45 type  3   force =     0.00000000    0.00000000    0.00000000
     atom   46 type  3   force =     0.00000000    0.00000000    0.00000000
     atom   47 type  3   force =     0.00000000    0.00000000    0.00000000
     atom   48 type  3   force =     0.00000000    0.00000000    0.00000000
     atom   49 type  3   force =     0.00000000    0.00000000    0.00000000
     atom   50 type  3   force =     0.00000000    0.00000000    0.00000000
     atom   51 type  3   force =     0.00000000    0.00000000    0.00000000
     atom   52 type  3   force =     0.00000000    0.00000000    0.00000000
     atom   53 type  3   force =     0.00000000    0.00000000    0.00000000
     atom   54 type  3   force =     0.00000000    0.00000000    0.00000000
     atom   55 type  3   force =     0.00000000    0.00000000    0.00000000
     atom   56 type  3   force =     0.00000000    0.00000000    0.00000000
     atom   57 type  3   force =     0.00000000    0.00000000    0.00000000
     atom   58 type  3   force =     0.00000000    0.00000000    0.00000000
     atom   59 type  3   force =     0.00000000    0.00000000    0.00000000
     atom   60 type  3   force =     0.00000000    0.00000000    0.00000000
[...]
     atom  124 type  2   force =     0.00000000    0.00000000    0.00000000
     atom  125 type  2   force =     0.00000000    0.00000000    0.00000000
     atom  126 type  2   force =     0.00000000    0.00000000    0.00000000
     atom  127 type  2   force =     0.00000000    0.00000000    0.00000000
     atom  128 type  2   force =     0.00000000    0.00000000    0.00000000
     atom  129 type  2   force =     0.00000000    0.00000000    0.00000000
     atom  130 type  2   force =     0.00000000    0.00000000    0.00000000
     atom  131 type  2   force =     0.00000000    0.00000000    0.00000000
     atom  132 type  2   force =     0.00000000    0.00000000    0.00000000
     atom  133 type  2   force =     0.00000000    0.00000000    0.00000000
     atom  134 type  2   force =     0.00000000    0.00000000    0.00000000
     atom  135 type  2   force =     0.00000000    0.00000000    0.00000000
     atom  136 type  2   force =     0.00000000    0.00000000    0.00000000
     atom  137 type  2   force =     0.00000000    0.00000000    0.00000000
     atom  138 type  2   force =     0.00000000    0.00000000    0.00000000
     The SCF correction term to forces
     atom    1 type  4   force =    -0.00000001    0.00000000   -0.00000293
     atom    2 type  4   force =    -0.00000001    0.00000000   -0.00001065
     atom    3 type  4   force =    -0.00000001    0.00000000    0.00000308
     atom    4 type  4   force =     0.00000001   -0.00000000    0.00000293
     atom    5 type  4   force =     0.00000001   -0.00000000   -0.00000308
     atom    6 type  4   force =     0.00000001   -0.00000000    0.00001065
     atom    7 type  4   force =    -0.00002877   -0.00001345    0.00001137
     atom    8 type  4   force =     0.00002603   -0.00001819    0.00001137
     atom    9 type  4   force =     0.00000274    0.00003164    0.00001137
     atom   10 type  4   force =     0.00000491    0.00000690   -0.00002524
     atom   11 type  4   force =    -0.00000843    0.00000080   -0.00002524
     atom   12 type  4   force =     0.00000352   -0.00000770   -0.00002524
     atom   13 type  4   force =    -0.00001260   -0.00000662    0.00001473
     atom   14 type  4   force =     0.00001203   -0.00000761    0.00001473
     atom   15 type  4   force =     0.00000057    0.00001422    0.00001473
     atom   16 type  4   force =     0.00002877    0.00001345   -0.00001136
     atom   17 type  4   force =    -0.00002603    0.00001819   -0.00001137
     atom   18 type  4   force =    -0.00000274   -0.00003164   -0.00001136
     atom   19 type  4   force =     0.00001260    0.00000662   -0.00001473
     atom   20 type  4   force =    -0.00001203    0.00000760   -0.00001473
     atom   21 type  4   force =    -0.00000057   -0.00001422   -0.00001473
     atom   22 type  4   force =    -0.00000491   -0.00000690    0.00002524
     atom   23 type  4   force =     0.00000843   -0.00000080    0.00002524
     atom   24 type  4   force =    -0.00000352    0.00000770    0.00002524
     atom   25 type  1   force =    -0.00000000    0.00000000    0.00000000
     atom   26 type  1   force =    -0.00000000    0.00000000   -0.00001209
     atom   27 type  1   force =    -0.00000000    0.00000000    0.00001209
     atom   28 type  1   force =     0.00000001   -0.00000001   -0.00000257
     atom   29 type  1   force =     0.00000001   -0.00000000   -0.00000001
     atom   30 type  1   force =     0.00000001   -0.00000001    0.00000253
     atom   31 type  3   force =    -0.00001079   -0.00000618    0.00000793
     atom   32 type  3   force =     0.00001074   -0.00000625    0.00000793
     atom   33 type  3   force =     0.00000004    0.00001243    0.00000793
     atom   34 type  3   force =     0.00001913    0.00000038   -0.00000989
     atom   35 type  3   force =    -0.00000989    0.00001638   -0.00000989
     atom   36 type  3   force =    -0.00000924   -0.00001675   -0.00000989
     atom   37 type  3   force =    -0.00000966   -0.00000455    0.00000730
     atom   38 type  3   force =     0.00000877   -0.00000609    0.00000730
     atom   39 type  3   force =     0.00000089    0.00001064    0.00000730
     atom   40 type  3   force =     0.00001079    0.00000618   -0.00000793
     atom   41 type  3   force =    -0.00001074    0.00000625   -0.00000793
     atom   42 type  3   force =    -0.00000004   -0.00001243   -0.00000793
     atom   43 type  3   force =     0.00000966    0.00000455   -0.00000730
     atom   44 type  3   force =    -0.00000877    0.00000609   -0.00000730
     atom   45 type  3   force =    -0.00000089   -0.00001064   -0.00000730
     atom   46 type  3   force =    -0.00001913   -0.00000038    0.00000989
     atom   47 type  3   force =     0.00000989   -0.00001638    0.00000989
     atom   48 type  3   force =     0.00000924    0.00001675    0.00000989
     atom   49 type  3   force =    -0.00000379   -0.00000187   -0.00000049
     atom   50 type  3   force =     0.00000351   -0.00000235   -0.00000049
     atom   51 type  3   force =     0.00000028    0.00000421   -0.00000049
     atom   52 type  3   force =    -0.00000110   -0.00000230   -0.00000225
     atom   53 type  3   force =     0.00000254    0.00000020   -0.00000225
     atom   54 type  3   force =    -0.00000144    0.00000210   -0.00000225
     atom   55 type  3   force =    -0.00000431    0.00000096   -0.00000126
     atom   56 type  3   force =     0.00000132   -0.00000422   -0.00000126
     atom   57 type  3   force =     0.00000299    0.00000325   -0.00000126
     atom   58 type  3   force =     0.00000379    0.00000187    0.00000049
     atom   59 type  3   force =    -0.00000351    0.00000235    0.00000049
     atom   60 type  3   force =    -0.00000028   -0.00000421    0.00000049
[...]
     atom  124 type  2   force =     0.00000379   -0.00000237   -0.00000133
     atom  125 type  2   force =     0.00000016    0.00000446   -0.00000133
     atom  126 type  2   force =    -0.00000394   -0.00000210   -0.00000133
     atom  127 type  2   force =    -0.00000340    0.00000201    0.00000124
     atom  128 type  2   force =    -0.00000004   -0.00000394    0.00000124
     atom  129 type  2   force =     0.00000344    0.00000194    0.00000124
     atom  130 type  2   force =     0.00000288   -0.00000165   -0.00000129
     atom  131 type  2   force =    -0.00000001    0.00000332   -0.00000129
     atom  132 type  2   force =    -0.00000287   -0.00000167   -0.00000129
     atom  133 type  2   force =     0.00000340   -0.00000201   -0.00000124
     atom  134 type  2   force =     0.00000004    0.00000394   -0.00000124
     atom  135 type  2   force =    -0.00000344   -0.00000194   -0.00000124
     atom  136 type  2   force =    -0.00000379    0.00000237    0.00000133
     atom  137 type  2   force =    -0.00000016   -0.00000446    0.00000133
     atom  138 type  2   force =     0.00000394    0.00000210    0.00000133

     Total force =     0.366814     Total SCF correction =     0.000156

     Computing stress (Cartesian axis) and pressure

          total   stress  (Ry/bohr**3)                   (kbar)     P=       -0.97
  -0.00000644   0.00000000   0.00000000           -0.95        0.00        0.00
   0.00000000  -0.00000644   0.00000000            0.00       -0.95        0.00
   0.00000000   0.00000000  -0.00000692            0.00        0.00       -1.02

     kinetic stress (kbar)  54326.01      0.00      0.00
                                0.00  54326.01     -0.00
                                0.00     -0.00  54751.59

     local   stress (kbar) -19082.50      0.00     -0.00
                                0.00 -19082.47      0.00
                               -0.00      0.00  -2228.08

     nonloc. stress (kbar) -29681.83      0.00      0.00
                                0.00 -29681.83     -0.00
                                0.00     -0.00 -29704.25

     hartree stress (kbar)  18665.31     -0.00      0.00
                               -0.00  18665.31     -0.00
                                0.00     -0.00  11878.43

     exc-cor stress (kbar)   3670.90      0.00     -0.00
                                0.00   3670.90      0.00
                               -0.00      0.00   3667.80

     corecor stress (kbar) -10805.44     -0.00      0.00
                               -0.00 -10805.44     -0.00
                                0.00     -0.00 -10807.96

     ewald   stress (kbar) -17093.39     -0.00      0.00
                               -0.00 -17093.43     -0.00
                                0.00     -0.00 -27558.54

     hubbard stress (kbar)      0.00      0.00      0.00
                                0.00      0.00      0.00
                                0.00      0.00      0.00

     DFT-D   stress (kbar)      0.00      0.00      0.00
                                0.00      0.00      0.00
                                0.00      0.00      0.00

     XDM     stress (kbar)      0.00      0.00      0.00
                                0.00      0.00      0.00
                                0.00      0.00      0.00

     dft-nl  stress (kbar)      0.00      0.00      0.00
                                0.00      0.00      0.00
                                0.00      0.00      0.00

     TS-vdW  stress (kbar)      0.00      0.00      0.00
                                0.00      0.00      0.00
                                0.00      0.00      0.00

     MDB     stress (kbar)      0.00      0.00      0.00
                                0.00      0.00      0.00
                                0.00      0.00      0.00

     3D-RISM stress (kbar)      0.00      0.00      0.00
                                0.00      0.00      0.00
                                0.00      0.00      0.00

     Writing all to output data dir ./out/lcso.save/

     General routines

     Parallel routines

   This run was terminated on:  23:39:58   3May2024

   JOB DONE.